p cnf 12 50 
-12 -5 4 0
3 -2 -5 0
-5 -6 7 0
-10 7 -6 0
9 -5 -6 0
-10 7 5 0
-7 -3 -2 0
12 -9 -2 0
-7 3 -1 0
6 11 10 0
-11 2 1 0
-9 -7 -8 0
6 -2 -3 0
-4 8 -7 0
-1 9 -7 0
6 -4 5 0
-4 -2 1 0
6 -8 5 0
10 -9 -5 0
-9 -4 11 0
6 -5 -9 0
9 5 4 0
4 -6 3 0
-9 4 6 0
3 9 -1 0
-11 -2 -6 0
-11 12 10 0
4 3 -10 0
6 -4 10 0
8 11 -10 0
-9 -11 8 0
10 -12 -2 0
9 10 -8 0
11 8 -9 0
-1 2 12 0
4 3 1 0
12 6 -3 0
4 -6 5 0
10 -8 -11 0
-1 -11 -2 0
1 -11 -5 0
2 -12 -5 0
-1 -2 -9 0
-12 6 -9 0
-3 -8 4 0
-8 -6 1 0
-6 -10 -11 0
-1 2 -4 0
-10 6 5 0
7 -12 -8 0
